(set-info :smt-lib-version 2.6)
(set-logic QF_LIA)
(set-info :category "industrial")
(set-info :status sat)
(declare-fun x0 () Int)
(declare-fun x1 () Int)
(declare-fun x10 () Int)
(declare-fun x11 () Int)
(declare-fun x12 () Int)
(declare-fun x13 () Int)
(declare-fun x14 () Int)
(declare-fun x15 () Int)
(declare-fun x16 () Int)
(declare-fun x17 () Int)
(declare-fun x18 () Int)
(declare-fun x19 () Int)
(declare-fun x2 () Int)
(declare-fun x20 () Int)
(declare-fun x21 () Int)
(declare-fun x22 () Int)
(declare-fun x23 () Int)
(declare-fun x24 () Int)
(declare-fun x25 () Int)
(declare-fun x26 () Int)
(declare-fun x27 () Int)
(declare-fun x28 () Int)
(declare-fun x29 () Int)
(declare-fun x3 () Int)
(declare-fun x30 () Int)
(declare-fun x31 () Int)
(declare-fun x32 () Int)
(declare-fun x33 () Int)
(declare-fun x34 () Int)
(declare-fun x35 () Int)
(declare-fun x36 () Int)
(declare-fun x37 () Int)
(declare-fun x38 () Int)
(declare-fun x39 () Int)
(declare-fun x4 () Int)
(declare-fun x40 () Int)
(declare-fun x41 () Int)
(declare-fun x42 () Int)
(declare-fun x43 () Int)
(declare-fun x44 () Int)
(declare-fun x5 () Int)
(declare-fun x6 () Int)
(declare-fun x7 () Int)
(declare-fun x8 () Int)
(declare-fun x9 () Int)
(assert (let ((?v_59 (* 0 x0)) (?v_42 (* 0 x11)) (?v_8 (* 0 x14)) (?v_30 (* 0 x19)) (?v_7 (* 0 x20)) (?v_19 (* 0 x21)) (?v_2 (* 1 x10)) (?v_131 (* 2 x24)) (?v_86 (* 1 x27)) (?v_1 (* 0 x28)) (?v_0 (* 0 x32)) (?v_10 (* 1 x33)) (?v_4 (* 0 x36)) (?v_55 (* 1 x29)) (?v_38 (* 1 x35)) (?v_12 (* 1 x38)) (?v_130 (* 1 x40)) (?v_3 (* 0 x30)) (?v_14 (* 1 x43)) (?v_34 (* 1 x44)) (?v_39 (* 1 x5)) (?v_15 (* 0 x6)) (?v_5 (* 1 x11)) (?v_9 (* 1 x16)) (?v_6 (* 0 x17)) (?v_52 (* 0 x18)) (?v_31 (* 0 x2)) (?v_21 (* 0 x27)) (?v_26 (* 0 x40)) (?v_27 (* 0 x44)) (?v_17 (* 1 x0)) (?v_11 (* 0 x35)) (?v_78 (* 0 x37)) (?v_37 (* 0 x7)) (?v_28 (* 1 x6)) (?v_16 (* 0 x1)) (?v_61 (* 0 x13)) (?v_117 (* 1 x12)) (?v_67 (* 0 x22)) (?v_96 (* 1 x2)) (?v_44 (* 0 x24)) (?v_23 (* 0 x31)) (?v_56 (* 1 x3)) (?v_124 (* 1 x36)) (?v_100 (* 0 x5)) (?v_88 (* 1 x9)) (?v_29 (* 0 x12)) (?v_43 (* 1 x13)) (?v_84 (* 1 x20)) (?v_62 (* 0 x23)) (?v_68 (* 0 x25)) (?v_33 (* 1 x4)) (?v_49 (* 0 x41)) (?v_63 (* 0 x42)) (?v_50 (* 0 x8)) (?v_93 (* 2 x7)) (?v_53 (* 1 x22)) (?v_46 (* 0 x3)) (?v_150 (* 1 x24)) (?v_45 (* 0 x29)) (?v_54 (* 0 x33)) (?v_47 (* 0 x34)) (?v_57 (* 1 x42)) (?v_87 (* 1 x41)) (?v_66 (* 0 x10)) (?v_72 (* 1 x17)) (?v_115 (* 1 x31)) (?v_92 (* 0 x39)) (?v_70 (* 0 x43)) (?v_73 (* 1 x21)) (?v_76 (* 0 x9)) (?v_113 (* 1 x37)) (?v_79 (* 1 x7)) (?v_75 (* 1 x39)) (?v_111 (* 0 x4)) (?v_147 (* 2 x9)) (?v_95 (* 2 x11)) (?v_132 (* 1 x28)) (?v_85 (* 0 x26)) (?v_91 (* 0 x38)) (?v_114 (* 0 x16)) (?v_119 (* 0 x15)) (?v_104 (* 1 x14)) (?v_110 (* 1 x18)) (?v_105 (* 1 x32)) (?v_106 (* 1 x8))) (let ((?v_125 (+ ?v_79 ?v_106)) (?v_137 (* 2 x4)) (?v_112 (* 1 x30)) (?v_139 (* 2 x10)) (?v_122 (* 1 x34)) (?v_127 (* 1 x19)) (?v_121 (* 1 x23)) (?v_149 (* 1 x1)) (?v_145 (* 1 x15)) (?v_123 (* 1 x25)) (?v_128 (+ ?v_39 ?v_28)) (?v_143 (* 2 x26)) (?v_140 (* 1 x26)) (?v_60 (* (- 1) x16)) (?v_77 (* (- 1) x18)) (?v_120 (* (- 1) x2)) (?v_24 (* (- 1) x34)) (?v_25 (* (- 1) x37)) (?v_65 (* (- 1) x39)) (?v_13 (* (- 1) x41)) (?v_40 (* (- 2) x4)) (?v_89 (* (- 1) x12)) (?v_18 (* (- 1) x15)) (?v_144 (* (- 1) x21)) (?v_41 (* (- 1) x22)) (?v_48 (* (- 1) x42)) (?v_58 (* (- 1) x43)) (?v_35 (* (- 1) x8)) (?v_36 (* (- 1) x9)) (?v_20 (* (- 1) x26)) (?v_64 (* (- 1) x27)) (?v_22 (* (- 1) x29)) (?v_118 (* (- 1) x14)) (?v_51 (* (- 1) x19)) (?v_74 (* (- 1) x28)) (?v_32 (* (- 1) x30)) (?v_136 (* (- 2) x32)) (?v_109 (* (- 1) x13)) (?v_71 (* (- 1) x25)) (?v_69 (* (- 1) x38)) (?v_83 (* (- 1) x5)) (?v_82 (* (- 1) x23)) (?v_97 (* (- 1) x24)) (?v_80 (* (- 2) x40)) (?v_94 (* (- 1) x10)) (?v_126 (* (- 1) x20)) (?v_99 (* (- 1) x33)) (?v_133 (* (- 1) x35)) (?v_98 (* (- 1) x3)) (?v_90 (* (- 1) x36)) (?v_103 (* (- 1) x44)) (?v_81 (* (- 1) x1)) (?v_129 (* (- 2) x42)) (?v_101 (* (- 1) x31)) (?v_116 (* (- 1) x6)) (?v_148 (* (- 2) x34)) (?v_138 (* (- 1) x4)) (?v_102 (* (- 1) x40)) (?v_107 (* (- 2) x39)) (?v_108 (* (- 1) x0)) (?v_141 (* (- 2) x16)) (?v_134 (* (- 1) x17)) (?v_151 (* (- 2) x24)) (?v_142 (* (- 1) x7)) (?v_135 (* (- 1) x32)) (?v_146 (* (- 2) x8))) (and (<= (+ ?v_60 (+ ?v_77 (+ ?v_120 (+ ?v_59 (+ ?v_42 (+ ?v_8 (+ ?v_30 (+ ?v_7 (+ ?v_19 (+ ?v_2 (+ ?v_131 (+ (* (- 2) x26) (+ ?v_86 (+ ?v_24 (+ ?v_25 (+ ?v_65 (+ ?v_1 (+ ?v_0 (+ ?v_10 (+ ?v_4 (+ ?v_55 (+ ?v_38 (+ ?v_12 (+ ?v_130 (+ ?v_13 (+ ?v_3 (+ ?v_14 (+ ?v_34 (+ ?v_39 ?v_15))))))))))))))))))))))))))))) 0) (<= (+ ?v_5 (+ ?v_40 (+ ?v_89 (+ ?v_18 (+ ?v_9 (+ ?v_6 (+ ?v_144 (+ ?v_41 (+ ?v_48 (+ ?v_52 (+ ?v_31 (+ ?v_21 (+ ?v_0 (+ ?v_26 (+ ?v_27 (+ ?v_17 (+ (* 2 x13) (+ (* 2 x19) (+ ?v_58 (+ ?v_35 (+ ?v_36 (+ ?v_1 (+ ?v_2 (+ (* (- 2) x41) (+ ?v_3 (+ ?v_11 (+ ?v_4 (+ ?v_78 (+ ?v_37 ?v_28))))))))))))))))))))))))))))) 1) (<= (+ ?v_16 (+ ?v_5 (+ ?v_61 (+ ?v_6 (+ ?v_7 (+ ?v_117 (+ ?v_8 (+ ?v_9 (+ ?v_67 (+ ?v_96 (+ ?v_44 (+ ?v_2 (+ ?v_20 (+ ?v_64 (+ ?v_1 (+ ?v_22 (+ ?v_23 (+ ?v_56 (+ ?v_10 (+ ?v_11 (+ ?v_124 (+ ?v_12 (+ ?v_13 (+ ?v_3 (+ ?v_100 (+ ?v_14 (+ ?v_15 ?v_88))))))))))))))))))))))))))) 1) (<= (+ ?v_16 (+ ?v_29 (+ ?v_17 (+ ?v_43 (+ ?v_118 (+ ?v_18 (+ ?v_51 (+ ?v_84 (+ ?v_19 (+ ?v_62 (+ ?v_68 (+ ?v_20 (+ ?v_21 (+ ?v_74 (+ ?v_22 (+ ?v_32 (+ ?v_23 (+ ?v_0 (+ ?v_24 (+ ?v_10 (+ ?v_25 (+ ?v_4 (+ ?v_26 (+ ?v_33 (+ ?v_49 (+ ?v_63 (+ ?v_27 (+ ?v_50 (+ ?v_28 ?v_93))))))))))))))))))))))))))))) 0) (<= (+ ?v_136 (+ ?v_109 (+ ?v_18 (+ ?v_29 (+ ?v_30 (+ ?v_31 (+ ?v_53 (+ ?v_46 (+ ?v_2 (+ ?v_150 (+ ?v_45 (+ ?v_32 (+ ?v_23 (+ ?v_54 (+ ?v_47 (+ ?v_25 (+ ?v_26 (+ ?v_33 (+ ?v_57 (+ ?v_34 (+ ?v_35 (+ ?v_36 (+ ?v_37 (+ ?v_38 (+ ?v_12 (+ ?v_87 (+ ?v_14 ?v_39))))))))))))))))))))))))))) 0) (<= (+ ?v_40 (+ ?v_41 (+ ?v_71 (+ ?v_66 (+ ?v_42 (+ ?v_29 (+ ?v_43 (+ ?v_8 (+ ?v_7 (+ ?v_9 (+ ?v_72 (+ ?v_31 (+ ?v_44 (+ ?v_45 (+ ?v_46 (+ ?v_32 (+ ?v_0 (+ ?v_115 (+ ?v_47 (+ ?v_11 (+ (* 2 x37) (+ ?v_69 (+ ?v_92 (+ ?v_48 (+ ?v_83 (+ ?v_36 (+ ?v_49 (+ ?v_70 (+ ?v_37 (+ ?v_50 ?v_28)))))))))))))))))))))))))))))) (- 1)) (<= (+ ?v_51 (+ ?v_16 (+ (* (- 2) x25) (+ ?v_29 (+ ?v_43 (+ ?v_82 (+ (* 2 x0) (+ ?v_8 (+ ?v_9 (+ ?v_52 (+ ?v_31 (+ ?v_73 (+ ?v_53 (+ ?v_97 (+ ?v_54 (+ ?v_76 (+ ?v_55 (+ ?v_56 (+ ?v_32 (+ ?v_113 (+ ?v_13 (+ ?v_57 (+ ?v_58 (+ ?v_34 (+ ?v_28 ?v_79))))))))))))))))))))))))) 0) (<= (+ ?v_80 (+ ?v_59 (+ ?v_94 (+ ?v_18 (+ ?v_60 (+ ?v_126 (+ ?v_29 (+ ?v_61 (+ ?v_30 (+ ?v_41 (+ ?v_52 (+ ?v_31 (+ ?v_19 (+ ?v_99 (+ ?v_62 (+ ?v_44 (+ ?v_21 (+ ?v_23 (+ ?v_0 (+ ?v_133 (+ ?v_25 (+ ?v_4 (+ ?v_75 (+ ?v_33 (+ ?v_49 (+ ?v_63 (+ (* 2 x5) ?v_37))))))))))))))))))))))))))) (- 1)) (<= (+ ?v_16 (+ ?v_18 (+ ?v_64 (+ ?v_98 (+ ?v_90 (+ ?v_65 (+ ?v_103 (+ ?v_66 (+ ?v_5 (+ ?v_43 (+ ?v_8 (+ ?v_9 (+ ?v_52 (+ ?v_31 (+ ?v_67 (+ ?v_44 (+ ?v_68 (+ ?v_69 (+ ?v_3 (+ ?v_0 (+ ?v_54 (+ ?v_47 (+ ?v_111 (+ ?v_26 (+ (* 2 x42) (+ ?v_70 (+ ?v_39 (+ ?v_28 (+ (* 2 x35) ?v_147))))))))))))))))))))))))))))) 0) (<= (+ ?v_81 (+ ?v_95 (+ ?v_71 (+ ?v_129 (+ ?v_8 (+ ?v_30 (+ ?v_21 (+ ?v_72 (+ ?v_73 (+ (* 2 x2) (+ ?v_74 (+ ?v_101 (+ ?v_25 (+ ?v_45 (+ ?v_46 (+ ?v_0 (+ ?v_54 (+ ?v_47 (+ ?v_4 (+ ?v_75 (+ ?v_14 (+ ?v_34 (+ ?v_116 (+ ?v_37 (+ ?v_76 ?v_38))))))))))))))))))))))))) (- 1)) (<= (+ ?v_18 (+ ?v_148 (+ ?v_77 (+ ?v_71 (+ ?v_138 (+ ?v_59 (+ ?v_66 (+ ?v_61 (+ ?v_31 (+ ?v_73 (+ ?v_67 (+ ?v_44 (+ ?v_132 (+ ?v_56 (+ (* (- 2) x35) (+ ?v_35 (+ ?v_85 (+ ?v_3 (+ ?v_23 (+ ?v_54 (+ ?v_4 (+ ?v_78 (+ ?v_91 (+ ?v_26 (+ ?v_57 (+ ?v_70 (+ ?v_27 ?v_79))))))))))))))))))))))))))) 1) (<= (+ ?v_80 (+ ?v_81 (+ ?v_18 (+ ?v_77 (+ ?v_82 (+ ?v_83 (+ ?v_66 (+ ?v_42 (+ ?v_29 (+ ?v_8 (+ ?v_114 (+ ?v_72 (+ ?v_31 (+ ?v_84 (+ ?v_19 (+ ?v_68 (+ ?v_85 (+ ?v_86 (+ ?v_45 (+ ?v_56 (+ ?v_3 (+ (* 2 x31) (+ ?v_54 (+ ?v_4 (+ ?v_87 (+ ?v_34 (+ ?v_79 (+ ?v_88 (* 2 x8))))))))))))))))))))))))))))) 1) (<= (+ (* (- 1) x11) (+ ?v_89 (+ ?v_41 (+ ?v_82 (+ ?v_102 (+ ?v_59 (+ ?v_61 (+ ?v_6 (+ ?v_52 (+ ?v_30 (+ ?v_84 (+ ?v_73 (+ ?v_22 (+ ?v_90 (+ ?v_58 (+ ?v_85 (+ ?v_1 (+ ?v_46 (+ ?v_3 (+ ?v_54 (+ ?v_11 (+ ?v_78 (+ ?v_91 (+ ?v_92 (+ ?v_27 (+ ?v_76 ?v_93)))))))))))))))))))))))))) 0) (<= (+ (* (- 2) x27) (+ ?v_17 (+ ?v_94 (+ ?v_60 (+ ?v_95 (+ ?v_61 (+ ?v_119 (+ ?v_6 (+ ?v_7 (+ ?v_68 (+ ?v_104 (+ ?v_110 (+ ?v_96 (+ ?v_53 (+ ?v_97 (+ ?v_98 (+ ?v_99 (+ ?v_85 (+ ?v_105 (+ ?v_78 (+ ?v_27 (+ ?v_100 (+ ?v_15 (+ ?v_76 (+ ?v_38 ?v_125))))))))))))))))))))))))) 0) (<= (+ ?v_107 (+ ?v_81 (+ ?v_5 (+ ?v_18 (+ ?v_30 (+ (* (- 2) x2) (+ ?v_82 (+ ?v_68 (+ ?v_98 (+ ?v_101 (+ ?v_102 (+ (* (- 2) x5) (+ ?v_74 (+ ?v_36 (+ ?v_66 (+ ?v_8 (+ ?v_67 (+ ?v_85 (+ ?v_45 (+ ?v_54 (+ ?v_47 (+ ?v_11 (+ ?v_78 (+ ?v_63 (+ ?v_27 (+ ?v_50 (+ (* 2 x30) (+ ?v_137 ?v_93)))))))))))))))))))))))))))) 0) (<= (+ (* (- 2) x23) (+ ?v_108 (+ ?v_5 (+ ?v_89 (+ ?v_30 (+ ?v_7 (+ ?v_21 (+ ?v_101 (+ ?v_103 (+ ?v_6 (+ ?v_36 (+ ?v_66 (+ ?v_52 (+ ?v_19 (+ ?v_67 (+ ?v_68 (+ ?v_104 (+ ?v_9 (+ ?v_44 (+ ?v_22 (+ ?v_90 (+ ?v_13 (+ ?v_83 (+ ?v_85 (+ ?v_46 (+ ?v_47 (+ ?v_78 (+ ?v_70 (+ ?v_15 (+ ?v_112 (+ ?v_105 (+ ?v_57 ?v_106)))))))))))))))))))))))))))))))) 0) (<= (+ ?v_141 (+ ?v_107 (+ ?v_108 (+ ?v_94 (+ ?v_5 (+ ?v_109 (+ ?v_30 (+ ?v_72 (+ ?v_71 (+ ?v_102 (+ ?v_110 (+ ?v_96 (+ ?v_53 (+ ?v_62 (+ ?v_22 (+ ?v_13 (+ ?v_85 (+ ?v_21 (+ ?v_0 (+ ?v_54 (+ ?v_4 (+ ?v_111 (+ ?v_15 (+ ?v_112 (+ ?v_38 (+ ?v_113 (+ ?v_34 ?v_79))))))))))))))))))))))))))) (- 1)) (<= (+ ?v_42 (+ ?v_29 (+ ?v_77 (+ ?v_98 (+ ?v_65 (+ ?v_48 (+ ?v_103 (+ ?v_59 (+ ?v_8 (+ ?v_114 (+ ?v_31 (+ ?v_19 (+ ?v_53 (+ ?v_62 (+ ?v_68 (+ ?v_139 (+ ?v_85 (+ ?v_55 (+ ?v_32 (+ ?v_115 (+ ?v_105 (+ ?v_122 (+ ?v_78 (+ ?v_111 (+ ?v_58 (+ ?v_83 ?v_116)))))))))))))))))))))))))) 1) (<= (+ ?v_107 (+ ?v_108 (+ ?v_81 (+ ?v_42 (+ ?v_114 (+ ?v_0 (+ ?v_26 (+ ?v_27 (+ ?v_117 (+ ?v_43 (+ ?v_118 (+ ?v_119 (+ ?v_77 (+ ?v_127 (+ ?v_67 (+ ?v_121 (+ (* (- 2) x36) (+ ?v_97 (+ ?v_24 (+ ?v_66 (+ ?v_85 (+ ?v_1 (+ ?v_45 (+ ?v_32 (+ ?v_10 (+ ?v_11 (+ ?v_33 (+ ?v_13 (+ ?v_63 (+ ?v_14 ?v_50)))))))))))))))))))))))))))))) 0) (<= (+ ?v_149 (+ ?v_109 (+ ?v_120 (+ ?v_59 (+ ?v_66 (+ ?v_19 (+ ?v_145 (+ ?v_67 (+ ?v_121 (+ ?v_123 (+ ?v_85 (+ ?v_86 (+ (* 2 x28) (+ ?v_45 (+ ?v_46 (+ ?v_32 (+ ?v_99 (+ ?v_122 (+ ?v_25 (+ ?v_65 (+ ?v_103 (+ ?v_116 (+ ?v_11 (+ ?v_4 (+ ?v_91 (+ ?v_111 (+ ?v_26 (+ ?v_13 (+ ?v_63 ?v_79))))))))))))))))))))))))))))) 0) (<= (+ ?v_134 (+ ?v_64 (+ (* (- 2) x37) (+ ?v_102 (+ ?v_103 (+ ?v_59 (+ ?v_42 (+ ?v_31 (+ ?v_67 (+ ?v_62 (+ ?v_123 (+ (* (- 3) x5) (+ ?v_97 (+ ?v_85 (+ ?v_55 (+ ?v_32 (+ ?v_0 (+ ?v_54 (+ ?v_11 (+ ?v_111 (+ ?v_124 (+ ?v_75 (+ ?v_13 (+ ?v_14 (+ ?v_116 (+ ?v_76 ?v_125)))))))))))))))))))))))))) (- 1)) (<= (+ ?v_108 (+ ?v_126 (+ ?v_16 (+ ?v_42 (+ ?v_29 (+ ?v_119 (+ ?v_72 (+ ?v_127 (+ ?v_31 (+ ?v_19 (+ ?v_97 (+ ?v_85 (+ ?v_21 (+ ?v_46 (+ ?v_32 (+ ?v_101 (+ ?v_99 (+ ?v_25 (+ ?v_102 (+ ?v_36 (+ ?v_4 (+ ?v_49 (+ ?v_34 ?v_128))))))))))))))))))))))) 0) (<= (+ ?v_108 (+ (* (- 2) x10) (+ ?v_114 (+ ?v_5 (+ (* (- 2) x17) (+ ?v_118 (+ ?v_126 (+ ?v_64 (+ ?v_103 (+ ?v_52 (+ ?v_30 (+ ?v_53 (+ ?v_151 (+ ?v_68 (+ ?v_142 (+ ?v_45 (+ ?v_3 (+ ?v_0 (+ ?v_4 (+ ?v_91 (+ ?v_92 (+ ?v_26 (+ ?v_76 (+ ?v_57 ?v_128)))))))))))))))))))))))) 1) (<= (+ ?v_129 (+ ?v_59 (+ ?v_94 (+ ?v_61 (+ ?v_77 (+ ?v_51 (+ ?v_7 (+ ?v_19 (+ ?v_68 (+ ?v_53 (+ ?v_98 (+ ?v_135 (+ ?v_115 (+ ?v_47 (+ ?v_25 (+ ?v_92 (+ ?v_58 (+ ?v_104 (+ ?v_90 (+ ?v_33 (+ ?v_130 (+ ?v_34 (+ ?v_131 (+ ?v_132 (+ ?v_45 (+ ?v_133 (+ ?v_91 (+ ?v_49 (+ ?v_15 (+ ?v_37 ?v_106)))))))))))))))))))))))))))))) 0) (<= (+ ?v_129 (+ ?v_59 (+ ?v_94 (+ ?v_5 (+ ?v_134 (+ ?v_29 (+ ?v_61 (+ ?v_77 (+ ?v_30 (+ ?v_84 (+ ?v_71 (+ ?v_135 (+ ?v_73 (+ ?v_67 (+ ?v_24 (+ ?v_25 (+ ?v_62 (+ ?v_21 (+ ?v_58 (+ ?v_104 (+ ?v_44 (+ ?v_1 (+ ?v_124 (+ ?v_91 (+ ?v_111 (+ ?v_49 (+ ?v_39 (+ ?v_15 (+ ?v_50 ?v_143))))))))))))))))))))))))))))) (- 1)) (<= (+ (* (- 2) x12) (+ ?v_136 (+ ?v_51 (+ ?v_120 (+ ?v_66 (+ ?v_5 (+ ?v_119 (+ ?v_114 (+ ?v_6 (+ ?v_7 (+ ?v_43 (+ ?v_67 (+ ?v_104 (+ ?v_1 (+ ?v_22 (+ ?v_101 (+ ?v_54 (+ ?v_25 (+ ?v_4 (+ ?v_91 (+ ?v_75 (+ ?v_137 (+ ?v_49 (+ ?v_27 (+ ?v_57 (+ ?v_15 (+ ?v_37 (+ ?v_50 (+ ?v_76 ?v_140))))))))))))))))))))))))))))) (- 1)) (<= (+ ?v_81 (+ ?v_59 (+ ?v_42 (+ ?v_118 (+ ?v_18 (+ ?v_72 (+ ?v_110 (+ ?v_31 (+ ?v_68 (+ ?v_21 (+ ?v_53 (+ ?v_98 (+ ?v_0 (+ ?v_115 (+ ?v_122 (+ ?v_90 (+ ?v_25 (+ ?v_138 (+ ?v_102 (+ ?v_44 (+ ?v_34 (+ ?v_100 (+ ?v_139 (+ (* 2 x33) (+ ?v_15 (+ ?v_37 (+ ?v_140 (+ ?v_55 ?v_88)))))))))))))))))))))))))))) 0) (<= (+ ?v_141 (+ ?v_81 (+ (* (- 3) x37) (+ ?v_59 (+ ?v_146 (+ ?v_94 (+ ?v_43 (+ ?v_8 (+ ?v_127 (+ ?v_31 (+ ?v_7 (+ ?v_19 (+ ?v_53 (+ ?v_62 (+ ?v_44 (+ ?v_21 (+ ?v_105 (+ ?v_47 (+ ?v_55 (+ ?v_133 (+ ?v_4 (+ ?v_75 (+ ?v_130 (+ ?v_13 (+ ?v_63 (+ ?v_100 (+ ?v_142 (+ ?v_76 (+ ?v_143 ?v_3))))))))))))))))))))))))))))) 0) (<= (+ ?v_108 (+ ?v_16 (+ ?v_61 (+ ?v_117 (+ ?v_118 (+ ?v_60 (+ ?v_134 (+ ?v_144 (+ ?v_64 (+ ?v_119 (+ ?v_52 (+ ?v_127 (+ ?v_31 (+ ?v_62 (+ ?v_97 (+ ?v_123 (+ ?v_74 (+ ?v_98 (+ ?v_0 (+ ?v_54 (+ ?v_2 (+ ?v_133 (+ ?v_78 (+ ?v_70 (+ ?v_116 (+ ?v_37 (+ ?v_140 (+ ?v_3 (+ ?v_33 (+ ?v_57 ?v_88)))))))))))))))))))))))))))))) 0) (<= (+ ?v_81 (+ ?v_98 (+ ?v_99 (+ ?v_25 (+ ?v_59 (+ ?v_29 (+ ?v_61 (+ ?v_83 (+ ?v_8 (+ ?v_19 (+ ?v_145 (+ ?v_110 (+ ?v_96 (+ ?v_53 (+ ?v_62 (+ ?v_44 (+ ?v_68 (+ ?v_47 (+ ?v_63 (+ ?v_146 (+ ?v_1 (+ ?v_142 (+ ?v_2 (+ ?v_140 (+ ?v_55 (+ ?v_3 (+ ?v_11 (+ ?v_124 (+ ?v_15 (+ ?v_12 (+ ?v_87 (+ ?v_14 ?v_147)))))))))))))))))))))))))))))))) 0) (<= (+ (* 2 x1) (+ ?v_18 (+ ?v_77 (+ (* (- 3) x24) (+ ?v_66 (+ ?v_29 (+ ?v_6 (+ ?v_31 (+ ?v_19 (+ ?v_67 (+ ?v_62 (+ ?v_68 (+ ?v_104 (+ ?v_1 (+ ?v_140 (+ (* (- 2) x30) (+ ?v_92 (+ ?v_115 (+ ?v_111 (+ ?v_10 (+ ?v_113 (+ ?v_91 (+ ?v_49 (+ ?v_14 (+ ?v_28 (+ ?v_79 ?v_88)))))))))))))))))))))))))) 1) (<= (+ ?v_80 (+ ?v_89 (+ ?v_61 (+ ?v_114 (+ ?v_6 (+ ?v_145 (+ ?v_52 (+ ?v_30 (+ ?v_7 (+ ?v_19 (+ ?v_44 (+ ?v_68 (+ ?v_140 (+ ?v_55 (+ ?v_32 (+ ?v_0 (+ ?v_65 (+ ?v_54 (+ ?v_111 (+ ?v_27 (+ ?v_122 (+ ?v_90 (+ ?v_58 (+ ?v_100 (+ ?v_15 (+ ?v_50 (+ ?v_38 (+ ?v_12 ?v_79)))))))))))))))))))))))))))) 1) (<= (+ ?v_148 (+ ?v_17 (+ ?v_149 (+ ?v_94 (+ ?v_18 (+ ?v_77 (+ ?v_144 (+ ?v_31 (+ ?v_84 (+ ?v_82 (+ ?v_98 (+ ?v_8 (+ ?v_150 (+ ?v_123 (+ ?v_1 (+ ?v_140 (+ ?v_55 (+ ?v_32 (+ ?v_101 (+ ?v_135 (+ ?v_25 (+ ?v_12 (+ ?v_75 (+ ?v_137 (+ ?v_13 (+ ?v_27 (+ ?v_57 (+ ?v_39 (+ ?v_15 ?v_79))))))))))))))))))))))))))))) 0) (<= (+ ?v_108 (+ ?v_18 (+ ?v_29 (+ ?v_114 (+ ?v_6 (+ ?v_77 (+ ?v_30 (+ ?v_31 (+ ?v_84 (+ ?v_19 (+ ?v_82 (+ ?v_8 (+ ?v_151 (+ ?v_68 (+ ?v_46 (+ ?v_2 (+ ?v_140 (+ ?v_132 (+ ?v_32 (+ ?v_23 (+ ?v_0 (+ ?v_47 (+ ?v_133 (+ ?v_90 (+ ?v_25 (+ ?v_102 (+ ?v_111 (+ ?v_48 (+ ?v_34 (+ ?v_83 ?v_14)))))))))))))))))))))))))))))) (- 1)) (<= (+ ?v_144 (+ ?v_41 (+ ?v_59 (+ ?v_149 (+ ?v_5 (+ ?v_29 (+ ?v_8 (+ ?v_114 (+ ?v_6 (+ ?v_52 (+ ?v_31 (+ ?v_62 (+ ?v_44 (+ ?v_123 (+ ?v_74 (+ ?v_98 (+ ?v_101 (+ ?v_0 (+ ?v_48 (+ ?v_10 (+ ?v_4 (+ ?v_113 (+ ?v_130 (+ ?v_34 (+ ?v_100 (+ ?v_50 (+ ?v_76 (+ ?v_55 (+ ?v_38 ?v_91))))))))))))))))))))))))))))) (- 1))))))
(check-sat)
(exit)
